50 8
270 274
576 796
190 122
420 889
125 340
664 755
713 611
129 563
568 778
155 736
548 395
426 194
230 752
737 104
258 595
624 311
475 179
582 765
560 677
323 228
216 383
113 648
633 702
718 453
647 464
615 346
635 193
688 144
528 447
515 24
161 370
677 654
551 458
481 776
231 692
798 217
662 654
642 201
598 822
260 250
565 429
730 853
545 530
317 199
597 791
216 285
141 308
622 613
564 125
471 378
